p cnf 368 1594
 368 -63 -62 0
 367 -62 0
 367 -63 0
 365 -61 -60 0
 363 -60 0
 363 -61 0
 366 -59 -58 0
 364 -58 0
 364 -59 0
 361 -57 -56 0
 359 -56 0
 359 -57 0
 362 -55 -54 0
 360 -54 0
 360 -55 0
 357 -53 -52 0
 355 -52 0
 355 -53 0
 358 -51 -50 0
 356 -50 0
 356 -51 0
 353 -49 -48 0
 351 -48 0
 351 -49 0
 354 -47 -46 0
 352 -46 0
 352 -47 0
 349 -45 -44 0
 347 -44 0
 347 -45 0
 350 -43 -42 0
 348 -42 0
 348 -43 0
 345 -41 -40 0
 343 -40 0
 343 -41 0
 346 -39 -38 0
 344 -38 0
 344 -39 0
 341 -37 -36 0
 339 -36 0
 339 -37 0
 342 -35 -34 0
 340 -34 0
 340 -35 0
 337 -33 -32 0
 335 -32 0
 335 -33 0
 338 -31 -30 0
 336 -30 0
 336 -31 0
 333 -29 -28 0
 331 -28 0
 331 -29 0
 334 -27 -26 0
 332 -26 0
 332 -27 0
 329 -25 -24 0
 327 -24 0
 327 -25 0
 330 -23 -22 0
 328 -22 0
 328 -23 0
 325 -21 -20 0
 323 -20 0
 323 -21 0
 326 -19 -18 0
 324 -18 0
 324 -19 0
 321 -17 -16 0
 319 -16 0
 319 -17 0
 322 -15 -14 0
 320 -14 0
 320 -15 0
 317 -13 -12 0
 315 -12 0
 315 -13 0
 318 -11 -10 0
 316 -10 0
 316 -11 0
 313 -9 -8 0
 311 -8 0
 311 -9 0
 314 -7 -6 0
 312 -6 0
 312 -7 0
 309 -5 -4 0
 307 -4 0
 307 -5 0
 310 -3 -2 0
 308 -2 0
 308 -3 0
 304 -1 -368 0
 302 -368 0
 302 -1 -367 0
 300 -367 0
 300 -1 0
 306 -365 -366 0
 305 -363 -366 0
 305 -365 -364 0
 303 -366 0
 303 -363 -364 0
 303 -365 0
 301 -364 0
 301 -363 0
 298 -361 -362 0
 296 -359 -362 0
 296 -361 -360 0
 294 -362 0
 294 -359 -360 0
 294 -361 0
 292 -360 0
 292 -359 0
 299 -357 -358 0
 297 -355 -358 0
 297 -357 -356 0
 295 -358 0
 295 -355 -356 0
 295 -357 0
 293 -356 0
 293 -355 0
 290 -353 -354 0
 288 -351 -354 0
 288 -353 -352 0
 286 -354 0
 286 -351 -352 0
 286 -353 0
 284 -352 0
 284 -351 0
 291 -349 -350 0
 289 -347 -350 0
 289 -349 -348 0
 287 -350 0
 287 -347 -348 0
 287 -349 0
 285 -348 0
 285 -347 0
 282 -345 -346 0
 280 -343 -346 0
 280 -345 -344 0
 278 -346 0
 278 -343 -344 0
 278 -345 0
 276 -344 0
 276 -343 0
 283 -341 -342 0
 281 -339 -342 0
 281 -341 -340 0
 279 -342 0
 279 -339 -340 0
 279 -341 0
 277 -340 0
 277 -339 0
 274 -337 -338 0
 272 -335 -338 0
 272 -337 -336 0
 270 -338 0
 270 -335 -336 0
 270 -337 0
 268 -336 0
 268 -335 0
 275 -333 -334 0
 273 -331 -334 0
 273 -333 -332 0
 271 -334 0
 271 -331 -332 0
 271 -333 0
 269 -332 0
 269 -331 0
 266 -329 -330 0
 264 -327 -330 0
 264 -329 -328 0
 262 -330 0
 262 -327 -328 0
 262 -329 0
 260 -328 0
 260 -327 0
 267 -325 -326 0
 265 -323 -326 0
 265 -325 -324 0
 263 -326 0
 263 -323 -324 0
 263 -325 0
 261 -324 0
 261 -323 0
 258 -321 -322 0
 256 -319 -322 0
 256 -321 -320 0
 254 -322 0
 254 -319 -320 0
 254 -321 0
 252 -320 0
 252 -319 0
 259 -317 -318 0
 257 -315 -318 0
 257 -317 -316 0
 255 -318 0
 255 -315 -316 0
 255 -317 0
 253 -316 0
 253 -315 0
 250 -313 -314 0
 248 -311 -314 0
 248 -313 -312 0
 246 -314 0
 246 -311 -312 0
 246 -313 0
 244 -312 0
 244 -311 0
 251 -309 -310 0
 249 -307 -310 0
 249 -309 -308 0
 247 -310 0
 247 -307 -308 0
 247 -309 0
 245 -308 0
 245 -307 0
 241 -304 -306 0
 239 -302 -306 0
 239 -304 -305 0
 237 -300 -306 0
 237 -302 -305 0
 237 -304 -303 0
 235 -306 0
 235 -300 -305 0
 235 -302 -303 0
 235 -304 -301 0
 233 -305 0
 233 -300 -303 0
 233 -302 -301 0
 233 -304 0
 231 -303 0
 231 -300 -301 0
 231 -302 0
 229 -301 0
 229 -300 0
 243 -298 -299 0
 242 -296 -299 0
 242 -298 -297 0
 240 -294 -299 0
 240 -296 -297 0
 240 -298 -295 0
 238 -292 -299 0
 238 -294 -297 0
 238 -296 -295 0
 238 -298 -293 0
 236 -299 0
 236 -292 -297 0
 236 -294 -295 0
 236 -296 -293 0
 236 -298 0
 234 -297 0
 234 -292 -295 0
 234 -294 -293 0
 234 -296 0
 232 -295 0
 232 -292 -293 0
 232 -294 0
 230 -293 0
 230 -292 0
 227 -290 -291 0
 225 -288 -291 0
 225 -290 -289 0
 223 -286 -291 0
 223 -288 -289 0
 223 -290 -287 0
 221 -284 -291 0
 221 -286 -289 0
 221 -288 -287 0
 221 -290 -285 0
 219 -291 0
 219 -284 -289 0
 219 -286 -287 0
 219 -288 -285 0
 219 -290 0
 217 -289 0
 217 -284 -287 0
 217 -286 -285 0
 217 -288 0
 215 -287 0
 215 -284 -285 0
 215 -286 0
 213 -285 0
 213 -284 0
 228 -282 -283 0
 226 -280 -283 0
 226 -282 -281 0
 224 -278 -283 0
 224 -280 -281 0
 224 -282 -279 0
 222 -276 -283 0
 222 -278 -281 0
 222 -280 -279 0
 222 -282 -277 0
 220 -283 0
 220 -276 -281 0
 220 -278 -279 0
 220 -280 -277 0
 220 -282 0
 218 -281 0
 218 -276 -279 0
 218 -278 -277 0
 218 -280 0
 216 -279 0
 216 -276 -277 0
 216 -278 0
 214 -277 0
 214 -276 0
 211 -274 -275 0
 209 -272 -275 0
 209 -274 -273 0
 207 -270 -275 0
 207 -272 -273 0
 207 -274 -271 0
 205 -268 -275 0
 205 -270 -273 0
 205 -272 -271 0
 205 -274 -269 0
 203 -275 0
 203 -268 -273 0
 203 -270 -271 0
 203 -272 -269 0
 203 -274 0
 201 -273 0
 201 -268 -271 0
 201 -270 -269 0
 201 -272 0
 199 -271 0
 199 -268 -269 0
 199 -270 0
 197 -269 0
 197 -268 0
 212 -266 -267 0
 210 -264 -267 0
 210 -266 -265 0
 208 -262 -267 0
 208 -264 -265 0
 208 -266 -263 0
 206 -260 -267 0
 206 -262 -265 0
 206 -264 -263 0
 206 -266 -261 0
 204 -267 0
 204 -260 -265 0
 204 -262 -263 0
 204 -264 -261 0
 204 -266 0
 202 -265 0
 202 -260 -263 0
 202 -262 -261 0
 202 -264 0
 200 -263 0
 200 -260 -261 0
 200 -262 0
 198 -261 0
 198 -260 0
 195 -258 -259 0
 193 -256 -259 0
 193 -258 -257 0
 191 -254 -259 0
 191 -256 -257 0
 191 -258 -255 0
 189 -252 -259 0
 189 -254 -257 0
 189 -256 -255 0
 189 -258 -253 0
 187 -259 0
 187 -252 -257 0
 187 -254 -255 0
 187 -256 -253 0
 187 -258 0
 185 -257 0
 185 -252 -255 0
 185 -254 -253 0
 185 -256 0
 183 -255 0
 183 -252 -253 0
 183 -254 0
 181 -253 0
 181 -252 0
 196 -250 -251 0
 194 -248 -251 0
 194 -250 -249 0
 192 -246 -251 0
 192 -248 -249 0
 192 -250 -247 0
 190 -244 -251 0
 190 -246 -249 0
 190 -248 -247 0
 190 -250 -245 0
 188 -251 0
 188 -244 -249 0
 188 -246 -247 0
 188 -248 -245 0
 188 -250 0
 186 -249 0
 186 -244 -247 0
 186 -246 -245 0
 186 -248 0
 184 -247 0
 184 -244 -245 0
 184 -246 0
 182 -245 0
 182 -244 0
 129 -241 -243 0
 131 -239 -243 0
 131 -241 -242 0
 133 -237 -243 0
 133 -239 -242 0
 133 -241 -240 0
 135 -235 -243 0
 135 -237 -242 0
 135 -239 -240 0
 135 -241 -238 0
 178 -233 -243 0
 178 -235 -242 0
 178 -237 -240 0
 178 -239 -238 0
 178 -241 -236 0
 176 -231 -243 0
 176 -233 -242 0
 176 -235 -240 0
 176 -237 -238 0
 176 -239 -236 0
 176 -241 -234 0
 174 -229 -243 0
 174 -231 -242 0
 174 -233 -240 0
 174 -235 -238 0
 174 -237 -236 0
 174 -239 -234 0
 174 -241 -232 0
 172 -243 0
 172 -229 -242 0
 172 -231 -240 0
 172 -233 -238 0
 172 -235 -236 0
 172 -237 -234 0
 172 -239 -232 0
 172 -241 -230 0
 170 -242 0
 170 -229 -240 0
 170 -231 -238 0
 170 -233 -236 0
 170 -235 -234 0
 170 -237 -232 0
 170 -239 -230 0
 170 -241 0
 168 -240 0
 168 -229 -238 0
 168 -231 -236 0
 168 -233 -234 0
 168 -235 -232 0
 168 -237 -230 0
 168 -239 0
 166 -238 0
 166 -229 -236 0
 166 -231 -234 0
 166 -233 -232 0
 166 -235 -230 0
 166 -237 0
 164 -236 0
 164 -229 -234 0
 164 -231 -232 0
 164 -233 -230 0
 164 -235 0
 162 -234 0
 162 -229 -232 0
 162 -231 -230 0
 162 -233 0
 160 -232 0
 160 -229 -230 0
 160 -231 0
 158 -230 0
 158 -229 0
 134 -227 -228 0
 132 -225 -228 0
 132 -227 -226 0
 130 -223 -228 0
 130 -225 -226 0
 130 -227 -224 0
 128 -221 -228 0
 128 -223 -226 0
 128 -225 -224 0
 128 -227 -222 0
 180 -219 -228 0
 180 -221 -226 0
 180 -223 -224 0
 180 -225 -222 0
 180 -227 -220 0
 179 -217 -228 0
 179 -219 -226 0
 179 -221 -224 0
 179 -223 -222 0
 179 -225 -220 0
 179 -227 -218 0
 177 -215 -228 0
 177 -217 -226 0
 177 -219 -224 0
 177 -221 -222 0
 177 -223 -220 0
 177 -225 -218 0
 177 -227 -216 0
 175 -213 -228 0
 175 -215 -226 0
 175 -217 -224 0
 175 -219 -222 0
 175 -221 -220 0
 175 -223 -218 0
 175 -225 -216 0
 175 -227 -214 0
 173 -228 0
 173 -213 -226 0
 173 -215 -224 0
 173 -217 -222 0
 173 -219 -220 0
 173 -221 -218 0
 173 -223 -216 0
 173 -225 -214 0
 173 -227 0
 171 -226 0
 171 -213 -224 0
 171 -215 -222 0
 171 -217 -220 0
 171 -219 -218 0
 171 -221 -216 0
 171 -223 -214 0
 171 -225 0
 169 -224 0
 169 -213 -222 0
 169 -215 -220 0
 169 -217 -218 0
 169 -219 -216 0
 169 -221 -214 0
 169 -223 0
 167 -222 0
 167 -213 -220 0
 167 -215 -218 0
 167 -217 -216 0
 167 -219 -214 0
 167 -221 0
 165 -220 0
 165 -213 -218 0
 165 -215 -216 0
 165 -217 -214 0
 165 -219 0
 163 -218 0
 163 -213 -216 0
 163 -215 -214 0
 163 -217 0
 161 -216 0
 161 -213 -214 0
 161 -215 0
 159 -214 0
 159 -213 0
 119 -211 -212 0
 121 -209 -212 0
 121 -211 -210 0
 123 -207 -212 0
 123 -209 -210 0
 123 -211 -208 0
 125 -205 -212 0
 125 -207 -210 0
 125 -209 -208 0
 125 -211 -206 0
 127 -203 -212 0
 127 -205 -210 0
 127 -207 -208 0
 127 -209 -206 0
 127 -211 -204 0
 156 -201 -212 0
 156 -203 -210 0
 156 -205 -208 0
 156 -207 -206 0
 156 -209 -204 0
 156 -211 -202 0
 154 -199 -212 0
 154 -201 -210 0
 154 -203 -208 0
 154 -205 -206 0
 154 -207 -204 0
 154 -209 -202 0
 154 -211 -200 0
 152 -197 -212 0
 152 -199 -210 0
 152 -201 -208 0
 152 -203 -206 0
 152 -205 -204 0
 152 -207 -202 0
 152 -209 -200 0
 152 -211 -198 0
 150 -212 0
 150 -197 -210 0
 150 -199 -208 0
 150 -201 -206 0
 150 -203 -204 0
 150 -205 -202 0
 150 -207 -200 0
 150 -209 -198 0
 150 -211 0
 148 -210 0
 148 -197 -208 0
 148 -199 -206 0
 148 -201 -204 0
 148 -203 -202 0
 148 -205 -200 0
 148 -207 -198 0
 148 -209 0
 146 -208 0
 146 -197 -206 0
 146 -199 -204 0
 146 -201 -202 0
 146 -203 -200 0
 146 -205 -198 0
 146 -207 0
 144 -206 0
 144 -197 -204 0
 144 -199 -202 0
 144 -201 -200 0
 144 -203 -198 0
 144 -205 0
 142 -204 0
 142 -197 -202 0
 142 -199 -200 0
 142 -201 -198 0
 142 -203 0
 140 -202 0
 140 -197 -200 0
 140 -199 -198 0
 140 -201 0
 138 -200 0
 138 -197 -198 0
 138 -199 0
 136 -198 0
 136 -197 0
 126 -195 -196 0
 124 -193 -196 0
 124 -195 -194 0
 122 -191 -196 0
 122 -193 -194 0
 122 -195 -192 0
 120 -189 -196 0
 120 -191 -194 0
 120 -193 -192 0
 120 -195 -190 0
 118 -187 -196 0
 118 -189 -194 0
 118 -191 -192 0
 118 -193 -190 0
 118 -195 -188 0
 157 -185 -196 0
 157 -187 -194 0
 157 -189 -192 0
 157 -191 -190 0
 157 -193 -188 0
 157 -195 -186 0
 155 -183 -196 0
 155 -185 -194 0
 155 -187 -192 0
 155 -189 -190 0
 155 -191 -188 0
 155 -193 -186 0
 155 -195 -184 0
 153 -181 -196 0
 153 -183 -194 0
 153 -185 -192 0
 153 -187 -190 0
 153 -189 -188 0
 153 -191 -186 0
 153 -193 -184 0
 153 -195 -182 0
 151 -196 0
 151 -181 -194 0
 151 -183 -192 0
 151 -185 -190 0
 151 -187 -188 0
 151 -189 -186 0
 151 -191 -184 0
 151 -193 -182 0
 151 -195 0
 149 -194 0
 149 -181 -192 0
 149 -183 -190 0
 149 -185 -188 0
 149 -187 -186 0
 149 -189 -184 0
 149 -191 -182 0
 149 -193 0
 147 -192 0
 147 -181 -190 0
 147 -183 -188 0
 147 -185 -186 0
 147 -187 -184 0
 147 -189 -182 0
 147 -191 0
 145 -190 0
 145 -181 -188 0
 145 -183 -186 0
 145 -185 -184 0
 145 -187 -182 0
 145 -189 0
 143 -188 0
 143 -181 -186 0
 143 -183 -184 0
 143 -185 -182 0
 143 -187 0
 141 -186 0
 141 -181 -184 0
 141 -183 -182 0
 141 -185 0
 139 -184 0
 139 -181 -182 0
 139 -183 0
 137 -182 0
 137 -181 0
 65 -178 -134 0
 65 -135 -132 0
 65 -133 -130 0
 65 -131 -128 0
 65 -129 -180 0
 67 -176 -134 0
 67 -178 -132 0
 67 -135 -130 0
 67 -133 -128 0
 67 -131 -180 0
 67 -129 -179 0
 69 -174 -134 0
 69 -176 -132 0
 69 -178 -130 0
 69 -135 -128 0
 69 -133 -180 0
 69 -131 -179 0
 69 -129 -177 0
 71 -172 -134 0
 71 -174 -132 0
 71 -176 -130 0
 71 -178 -128 0
 71 -135 -180 0
 71 -133 -179 0
 71 -131 -177 0
 71 -129 -175 0
 73 -170 -134 0
 73 -172 -132 0
 73 -174 -130 0
 73 -176 -128 0
 73 -178 -180 0
 73 -135 -179 0
 73 -133 -177 0
 73 -131 -175 0
 73 -129 -173 0
 75 -168 -134 0
 75 -170 -132 0
 75 -172 -130 0
 75 -174 -128 0
 75 -176 -180 0
 75 -178 -179 0
 75 -135 -177 0
 75 -133 -175 0
 75 -131 -173 0
 75 -129 -171 0
 77 -166 -134 0
 77 -168 -132 0
 77 -170 -130 0
 77 -172 -128 0
 77 -174 -180 0
 77 -176 -179 0
 77 -178 -177 0
 77 -135 -175 0
 77 -133 -173 0
 77 -131 -171 0
 77 -129 -169 0
 79 -164 -134 0
 79 -166 -132 0
 79 -168 -130 0
 79 -170 -128 0
 79 -172 -180 0
 79 -174 -179 0
 79 -176 -177 0
 79 -178 -175 0
 79 -135 -173 0
 79 -133 -171 0
 79 -131 -169 0
 79 -129 -167 0
 81 -162 -134 0
 81 -164 -132 0
 81 -166 -130 0
 81 -168 -128 0
 81 -170 -180 0
 81 -172 -179 0
 81 -174 -177 0
 81 -176 -175 0
 81 -178 -173 0
 81 -135 -171 0
 81 -133 -169 0
 81 -131 -167 0
 81 -129 -165 0
 83 -160 -134 0
 83 -162 -132 0
 83 -164 -130 0
 83 -166 -128 0
 83 -168 -180 0
 83 -170 -179 0
 83 -172 -177 0
 83 -174 -175 0
 83 -176 -173 0
 83 -178 -171 0
 83 -135 -169 0
 83 -133 -167 0
 83 -131 -165 0
 83 -129 -163 0
 85 -158 -134 0
 85 -160 -132 0
 85 -162 -130 0
 85 -164 -128 0
 85 -166 -180 0
 85 -168 -179 0
 85 -170 -177 0
 85 -172 -175 0
 85 -174 -173 0
 85 -176 -171 0
 85 -178 -169 0
 85 -135 -167 0
 85 -133 -165 0
 85 -131 -163 0
 85 -129 -161 0
 87 -134 0
 87 -158 -132 0
 87 -160 -130 0
 87 -162 -128 0
 87 -164 -180 0
 87 -166 -179 0
 87 -168 -177 0
 87 -170 -175 0
 87 -172 -173 0
 87 -174 -171 0
 87 -176 -169 0
 87 -178 -167 0
 87 -135 -165 0
 87 -133 -163 0
 87 -131 -161 0
 87 -129 -159 0
 89 -132 0
 89 -158 -130 0
 89 -160 -128 0
 89 -162 -180 0
 89 -164 -179 0
 89 -166 -177 0
 89 -168 -175 0
 89 -170 -173 0
 89 -172 -171 0
 89 -174 -169 0
 89 -176 -167 0
 89 -178 -165 0
 89 -135 -163 0
 89 -133 -161 0
 89 -131 -159 0
 89 -129 0
 91 -130 0
 91 -158 -128 0
 91 -160 -180 0
 91 -162 -179 0
 91 -164 -177 0
 91 -166 -175 0
 91 -168 -173 0
 91 -170 -171 0
 91 -172 -169 0
 91 -174 -167 0
 91 -176 -165 0
 91 -178 -163 0
 91 -135 -161 0
 91 -133 -159 0
 91 -131 0
 93 -128 0
 93 -158 -180 0
 93 -160 -179 0
 93 -162 -177 0
 93 -164 -175 0
 93 -166 -173 0
 93 -168 -171 0
 93 -170 -169 0
 93 -172 -167 0
 93 -174 -165 0
 93 -176 -163 0
 93 -178 -161 0
 93 -135 -159 0
 93 -133 0
 95 -180 0
 95 -158 -179 0
 95 -160 -177 0
 95 -162 -175 0
 95 -164 -173 0
 95 -166 -171 0
 95 -168 -169 0
 95 -170 -167 0
 95 -172 -165 0
 95 -174 -163 0
 95 -176 -161 0
 95 -178 -159 0
 95 -135 0
 97 -179 0
 97 -158 -177 0
 97 -160 -175 0
 97 -162 -173 0
 97 -164 -171 0
 97 -166 -169 0
 97 -168 -167 0
 97 -170 -165 0
 97 -172 -163 0
 97 -174 -161 0
 97 -176 -159 0
 97 -178 0
 99 -177 0
 99 -158 -175 0
 99 -160 -173 0
 99 -162 -171 0
 99 -164 -169 0
 99 -166 -167 0
 99 -168 -165 0
 99 -170 -163 0
 99 -172 -161 0
 99 -174 -159 0
 99 -176 0
 101 -175 0
 101 -158 -173 0
 101 -160 -171 0
 101 -162 -169 0
 101 -164 -167 0
 101 -166 -165 0
 101 -168 -163 0
 101 -170 -161 0
 101 -172 -159 0
 101 -174 0
 103 -173 0
 103 -158 -171 0
 103 -160 -169 0
 103 -162 -167 0
 103 -164 -165 0
 103 -166 -163 0
 103 -168 -161 0
 103 -170 -159 0
 103 -172 0
 105 -171 0
 105 -158 -169 0
 105 -160 -167 0
 105 -162 -165 0
 105 -164 -163 0
 105 -166 -161 0
 105 -168 -159 0
 105 -170 0
 107 -169 0
 107 -158 -167 0
 107 -160 -165 0
 107 -162 -163 0
 107 -164 -161 0
 107 -166 -159 0
 107 -168 0
 109 -167 0
 109 -158 -165 0
 109 -160 -163 0
 109 -162 -161 0
 109 -164 -159 0
 109 -166 0
 111 -165 0
 111 -158 -163 0
 111 -160 -161 0
 111 -162 -159 0
 111 -164 0
 113 -163 0
 113 -158 -161 0
 113 -160 -159 0
 113 -162 0
 115 -161 0
 115 -158 -159 0
 115 -160 0
 117 -159 0
 117 -158 0
 116 -156 -126 0
 116 -127 -124 0
 116 -125 -122 0
 116 -123 -120 0
 116 -121 -118 0
 116 -119 -157 0
 114 -154 -126 0
 114 -156 -124 0
 114 -127 -122 0
 114 -125 -120 0
 114 -123 -118 0
 114 -121 -157 0
 114 -119 -155 0
 112 -152 -126 0
 112 -154 -124 0
 112 -156 -122 0
 112 -127 -120 0
 112 -125 -118 0
 112 -123 -157 0
 112 -121 -155 0
 112 -119 -153 0
 110 -150 -126 0
 110 -152 -124 0
 110 -154 -122 0
 110 -156 -120 0
 110 -127 -118 0
 110 -125 -157 0
 110 -123 -155 0
 110 -121 -153 0
 110 -119 -151 0
 108 -148 -126 0
 108 -150 -124 0
 108 -152 -122 0
 108 -154 -120 0
 108 -156 -118 0
 108 -127 -157 0
 108 -125 -155 0
 108 -123 -153 0
 108 -121 -151 0
 108 -119 -149 0
 106 -146 -126 0
 106 -148 -124 0
 106 -150 -122 0
 106 -152 -120 0
 106 -154 -118 0
 106 -156 -157 0
 106 -127 -155 0
 106 -125 -153 0
 106 -123 -151 0
 106 -121 -149 0
 106 -119 -147 0
 104 -144 -126 0
 104 -146 -124 0
 104 -148 -122 0
 104 -150 -120 0
 104 -152 -118 0
 104 -154 -157 0
 104 -156 -155 0
 104 -127 -153 0
 104 -125 -151 0
 104 -123 -149 0
 104 -121 -147 0
 104 -119 -145 0
 102 -142 -126 0
 102 -144 -124 0
 102 -146 -122 0
 102 -148 -120 0
 102 -150 -118 0
 102 -152 -157 0
 102 -154 -155 0
 102 -156 -153 0
 102 -127 -151 0
 102 -125 -149 0
 102 -123 -147 0
 102 -121 -145 0
 102 -119 -143 0
 100 -140 -126 0
 100 -142 -124 0
 100 -144 -122 0
 100 -146 -120 0
 100 -148 -118 0
 100 -150 -157 0
 100 -152 -155 0
 100 -154 -153 0
 100 -156 -151 0
 100 -127 -149 0
 100 -125 -147 0
 100 -123 -145 0
 100 -121 -143 0
 100 -119 -141 0
 98 -138 -126 0
 98 -140 -124 0
 98 -142 -122 0
 98 -144 -120 0
 98 -146 -118 0
 98 -148 -157 0
 98 -150 -155 0
 98 -152 -153 0
 98 -154 -151 0
 98 -156 -149 0
 98 -127 -147 0
 98 -125 -145 0
 98 -123 -143 0
 98 -121 -141 0
 98 -119 -139 0
 96 -136 -126 0
 96 -138 -124 0
 96 -140 -122 0
 96 -142 -120 0
 96 -144 -118 0
 96 -146 -157 0
 96 -148 -155 0
 96 -150 -153 0
 96 -152 -151 0
 96 -154 -149 0
 96 -156 -147 0
 96 -127 -145 0
 96 -125 -143 0
 96 -123 -141 0
 96 -121 -139 0
 96 -119 -137 0
 94 -126 0
 94 -136 -124 0
 94 -138 -122 0
 94 -140 -120 0
 94 -142 -118 0
 94 -144 -157 0
 94 -146 -155 0
 94 -148 -153 0
 94 -150 -151 0
 94 -152 -149 0
 94 -154 -147 0
 94 -156 -145 0
 94 -127 -143 0
 94 -125 -141 0
 94 -123 -139 0
 94 -121 -137 0
 94 -119 0
 92 -124 0
 92 -136 -122 0
 92 -138 -120 0
 92 -140 -118 0
 92 -142 -157 0
 92 -144 -155 0
 92 -146 -153 0
 92 -148 -151 0
 92 -150 -149 0
 92 -152 -147 0
 92 -154 -145 0
 92 -156 -143 0
 92 -127 -141 0
 92 -125 -139 0
 92 -123 -137 0
 92 -121 0
 90 -122 0
 90 -136 -120 0
 90 -138 -118 0
 90 -140 -157 0
 90 -142 -155 0
 90 -144 -153 0
 90 -146 -151 0
 90 -148 -149 0
 90 -150 -147 0
 90 -152 -145 0
 90 -154 -143 0
 90 -156 -141 0
 90 -127 -139 0
 90 -125 -137 0
 90 -123 0
 88 -120 0
 88 -136 -118 0
 88 -138 -157 0
 88 -140 -155 0
 88 -142 -153 0
 88 -144 -151 0
 88 -146 -149 0
 88 -148 -147 0
 88 -150 -145 0
 88 -152 -143 0
 88 -154 -141 0
 88 -156 -139 0
 88 -127 -137 0
 88 -125 0
 86 -118 0
 86 -136 -157 0
 86 -138 -155 0
 86 -140 -153 0
 86 -142 -151 0
 86 -144 -149 0
 86 -146 -147 0
 86 -148 -145 0
 86 -150 -143 0
 86 -152 -141 0
 86 -154 -139 0
 86 -156 -137 0
 86 -127 0
 84 -157 0
 84 -136 -155 0
 84 -138 -153 0
 84 -140 -151 0
 84 -142 -149 0
 84 -144 -147 0
 84 -146 -145 0
 84 -148 -143 0
 84 -150 -141 0
 84 -152 -139 0
 84 -154 -137 0
 84 -156 0
 82 -155 0
 82 -136 -153 0
 82 -138 -151 0
 82 -140 -149 0
 82 -142 -147 0
 82 -144 -145 0
 82 -146 -143 0
 82 -148 -141 0
 82 -150 -139 0
 82 -152 -137 0
 82 -154 0
 80 -153 0
 80 -136 -151 0
 80 -138 -149 0
 80 -140 -147 0
 80 -142 -145 0
 80 -144 -143 0
 80 -146 -141 0
 80 -148 -139 0
 80 -150 -137 0
 80 -152 0
 78 -151 0
 78 -136 -149 0
 78 -138 -147 0
 78 -140 -145 0
 78 -142 -143 0
 78 -144 -141 0
 78 -146 -139 0
 78 -148 -137 0
 78 -150 0
 76 -149 0
 76 -136 -147 0
 76 -138 -145 0
 76 -140 -143 0
 76 -142 -141 0
 76 -144 -139 0
 76 -146 -137 0
 76 -148 0
 74 -147 0
 74 -136 -145 0
 74 -138 -143 0
 74 -140 -141 0
 74 -142 -139 0
 74 -144 -137 0
 74 -146 0
 72 -145 0
 72 -136 -143 0
 72 -138 -141 0
 72 -140 -139 0
 72 -142 -137 0
 72 -144 0
 70 -143 0
 70 -136 -141 0
 70 -138 -139 0
 70 -140 -137 0
 70 -142 0
 68 -141 0
 68 -136 -139 0
 68 -138 -137 0
 68 -140 0
 66 -139 0
 66 -136 -137 0
 66 -138 0
 64 -137 0
 64 -136 0
 -135 -134 0
 -133 -132 0
 -131 -130 0
 -129 -128 0
 -127 -126 0
 -125 -124 0
 -123 -122 0
 -121 -120 0
 -119 -118 0
 -117 -116 0
 -115 -114 0
 -113 -112 0
 -111 -110 0
 -109 -108 0
 -107 -106 0
 -105 -104 0
 -103 -102 0
 -101 -100 0
 -99 -98 0
 -97 -96 0
 -95 -94 0
 -93 -92 0
 -91 -90 0
 -89 -88 0
 -87 -86 0
 -85 -84 0
 -83 -82 0
 -81 -80 0
 -79 -78 0
 -77 -76 0
 -75 -74 0
 -73 -72 0
 -71 -70 0
 -69 -68 0
 -67 -66 0
 -65 -64 0
 62 63 54 53 0
 62 54 44 52 0
 61 62 53 52 0
 62 45 34 51 0
 61 53 43 51 0
 60 61 52 51 0
 62 36 24 50 0
 61 44 33 50 0
 60 52 42 50 0
 59 60 51 50 0
 62 27 14 49 0
 61 35 23 49 0
 60 43 32 49 0
 59 51 41 49 0
 58 59 50 49 0
 62 18 4 48 0
 61 26 13 48 0
 60 34 22 48 0
 59 42 31 48 0
 58 50 40 48 0
 57 58 49 48 0
 61 17 3 47 0
 60 25 12 47 0
 59 33 21 47 0
 58 41 30 47 0
 57 49 39 47 0
 56 57 48 47 0
 60 16 2 46 0
 59 24 11 46 0
 58 32 20 46 0
 57 40 29 46 0
 56 48 38 46 0
 55 56 47 46 0
 53 54 45 44 0
 61 63 45 43 0
 53 45 35 43 0
 52 53 44 43 0
 61 54 35 42 0
 60 62 44 42 0
 53 36 25 42 0
 52 44 34 42 0
 51 52 43 42 0
 61 45 25 41 0
 60 53 34 41 0
 59 61 43 41 0
 53 27 15 41 0
 52 35 24 41 0
 51 43 33 41 0
 50 51 42 41 0
 61 36 15 40 0
 60 44 24 40 0
 59 52 33 40 0
 58 60 42 40 0
 53 18 5 40 0
 52 26 14 40 0
 51 34 23 40 0
 50 42 32 40 0
 49 50 41 40 0
 61 27 5 39 0
 60 35 14 39 0
 59 43 23 39 0
 58 51 32 39 0
 57 59 41 39 0
 52 17 4 39 0
 51 25 13 39 0
 50 33 22 39 0
 49 41 31 39 0
 48 49 40 39 0
 60 26 4 38 0
 59 34 13 38 0
 58 42 22 38 0
 57 50 31 38 0
 56 58 40 38 0
 51 16 3 38 0
 50 24 12 38 0
 49 32 21 38 0
 48 40 30 38 0
 47 48 39 38 0
 59 25 3 37 0
 58 33 12 37 0
 57 41 21 37 0
 56 49 30 37 0
 55 57 39 37 0
 50 15 2 37 0
 49 23 11 37 0
 48 31 20 37 0
 47 39 29 37 0
 46 47 38 37 0
 44 45 36 35 0
 52 54 36 34 0
 44 36 26 34 0
 43 44 35 34 0
 60 63 36 33 0
 52 45 26 33 0
 51 53 35 33 0
 44 27 16 33 0
 43 35 25 33 0
 42 43 34 33 0
 60 54 26 32 0
 59 62 35 32 0
 52 36 16 32 0
 51 44 25 32 0
 50 52 34 32 0
 44 18 6 32 0
 43 26 15 32 0
 42 34 24 32 0
 41 42 33 32 0
 60 45 16 31 0
 59 53 25 31 0
 58 61 34 31 0
 52 27 6 31 0
 51 35 15 31 0
 50 43 24 31 0
 49 51 33 31 0
 43 17 5 31 0
 42 25 14 31 0
 41 33 23 31 0
 40 41 32 31 0
 60 36 6 30 0
 59 44 15 30 0
 58 52 24 30 0
 57 60 33 30 0
 51 26 5 30 0
 50 34 14 30 0
 49 42 23 30 0
 48 50 32 30 0
 42 16 4 30 0
 41 24 13 30 0
 40 32 22 30 0
 39 40 31 30 0
 59 35 5 29 0
 58 43 14 29 0
 57 51 23 29 0
 56 59 32 29 0
 50 25 4 29 0
 49 33 13 29 0
 48 41 22 29 0
 47 49 31 29 0
 41 15 3 29 0
 40 23 12 29 0
 39 31 21 29 0
 38 39 30 29 0
 58 34 4 28 0
 57 42 13 28 0
 56 50 22 28 0
 55 58 31 28 0
 49 24 3 28 0
 48 32 12 28 0
 47 40 21 28 0
 46 48 30 28 0
 40 14 2 28 0
 39 22 11 28 0
 38 30 20 28 0
 37 38 29 28 0
 35 36 27 26 0
 43 45 27 25 0
 35 27 17 25 0
 34 35 26 25 0
 51 54 27 24 0
 43 36 17 24 0
 42 44 26 24 0
 35 18 7 24 0
 34 26 16 24 0
 33 34 25 24 0
 59 63 27 23 0
 51 45 17 23 0
 50 53 26 23 0
 43 27 7 23 0
 42 35 16 23 0
 41 43 25 23 0
 34 17 6 23 0
 33 25 15 23 0
 32 33 24 23 0
 59 54 17 22 0
 58 62 26 22 0
 51 36 7 22 0
 50 44 16 22 0
 49 52 25 22 0
 42 26 6 22 0
 41 34 15 22 0
 40 42 24 22 0
 33 16 5 22 0
 32 24 14 22 0
 31 32 23 22 0
 59 45 7 21 0
 58 53 16 21 0
 57 61 25 21 0
 50 35 6 21 0
 49 43 15 21 0
 48 51 24 21 0
 41 25 5 21 0
 40 33 14 21 0
 39 41 23 21 0
 32 15 4 21 0
 31 23 13 21 0
 30 31 22 21 0
 58 44 6 20 0
 57 52 15 20 0
 56 60 24 20 0
 49 34 5 20 0
 48 42 14 20 0
 47 50 23 20 0
 40 24 4 20 0
 39 32 13 20 0
 38 40 22 20 0
 31 14 3 20 0
 30 22 12 20 0
 29 30 21 20 0
 57 43 5 19 0
 56 51 14 19 0
 55 59 23 19 0
 48 33 4 19 0
 47 41 13 19 0
 46 49 22 19 0
 39 23 3 19 0
 38 31 12 19 0
 37 39 21 19 0
 30 13 2 19 0
 29 21 11 19 0
 28 29 20 19 0
 26 27 18 17 0
 34 36 18 16 0
 26 18 8 16 0
 25 26 17 16 0
 42 45 18 15 0
 34 27 8 15 0
 33 35 17 15 0
 25 17 7 15 0
 24 25 16 15 0
 50 54 18 14 0
 42 36 8 14 0
 41 44 17 14 0
 33 26 7 14 0
 32 34 16 14 0
 24 16 6 14 0
 23 24 15 14 0
 58 63 18 13 0
 50 45 8 13 0
 49 53 17 13 0
 41 35 7 13 0
 40 43 16 13 0
 32 25 6 13 0
 31 33 15 13 0
 23 15 5 13 0
 22 23 14 13 0
 58 54 8 12 0
 57 62 17 12 0
 49 44 7 12 0
 48 52 16 12 0
 40 34 6 12 0
 39 42 15 12 0
 31 24 5 12 0
 30 32 14 12 0
 22 14 4 12 0
 21 22 13 12 0
 57 53 7 11 0
 56 61 16 11 0
 48 43 6 11 0
 47 51 15 11 0
 39 33 5 11 0
 38 41 14 11 0
 30 23 4 11 0
 29 31 13 11 0
 21 13 3 11 0
 20 21 12 11 0
 56 52 6 10 0
 55 60 15 10 0
 47 42 5 10 0
 46 50 14 10 0
 38 32 4 10 0
 37 40 13 10 0
 29 22 3 10 0
 28 30 12 10 0
 20 12 2 10 0
 19 20 11 10 0
 17 18 9 8 0
 25 27 9 7 0
 16 17 8 7 0
 33 36 9 6 0
 24 26 8 6 0
 15 16 7 6 0
 41 45 9 5 0
 32 35 8 5 0
 23 25 7 5 0
 14 15 6 5 0
 49 54 9 4 0
 40 44 8 4 0
 31 34 7 4 0
 22 24 6 4 0
 13 14 5 4 0
 57 63 9 3 0
 48 53 8 3 0
 39 43 7 3 0
 30 33 6 3 0
 21 23 5 3 0
 12 13 4 3 0
 56 62 8 2 0
 47 52 7 2 0
 38 42 6 2 0
 29 32 5 2 0
 20 22 4 2 0
 11 12 3 2 0
 55 61 7 1 0
 46 51 6 1 0
 37 41 5 1 0
 28 31 4 1 0
 19 21 3 1 0
 10 11 2 1 0
